c This is a CNF SAT formula in the DIMACS CNF format,
c produced with the bc2cnf translator by Tommi Junttila;
c see http://users.ics.aalto.fi/tjunttil/circuits/index.html
c phi_Gamma <-> 1
c phi_T_feature_det <-> 1
c phi_T_transitions <-> 1
c phi_T_transitions_consistency <-> 1
c phi_T <-> 1
c phi_sim_leaves <-> 1
c phi_sim_transition <-> 1
c phi_sim <-> 1
c FORMULA <-> 1
c pi_2_0 <-> 2
c pi_2_5 <-> 2
c pi_2_7 <-> 2
c pi_2_9 <-> 2
c pi_1_0 <-> 7
c pi_1_5 <-> 7
c pi_1_7 <-> 7
c pi_1_9 <-> 7
c pi_0_0 <-> 14
c pi_0_5 <-> 14
c pi_0_7 <-> 14
c pi_0_9 <-> 14
c pi_2_8 <-> 23
c pi_1_8 <-> 27
c pi_0_8 <-> 37
c pi_2_4 <-> 51
c pi_2_6 <-> 51
c pi_1_4 <-> 58
c pi_1_6 <-> 58
c pi_0_4 <-> 69
c pi_0_6 <-> 69
c pi_2_3 <-> 84
c pi_1_3 <-> 86
c pi_0_3 <-> 92
c pi_2_1 <-> 100
c pi_2_2 <-> 100
c pi_1_1 <-> 104
c pi_1_2 <-> 104
c pi_0_1 <-> 114
c pi_0_2 <-> 114
c alp_H1_1_0 <-> 128
c alp_H1_0_1 <-> 128
c alp_H1_0_2 <-> 128
c alp_H1_0_3 <-> 128
c alp_H1_0_4 <-> 128
c alp_H1_1_5 <-> 128
c alp_H1_0_6 <-> 128
c alp_H1_1_7 <-> 128
c alp_H1_1_8 <-> 128
c alp_H1_1_9 <-> 128
c alp_H1_1_1 <-> 129
c alp_H1_1_2 <-> 129
c alp_H1_1_3 <-> 129
c alp_H1_1_4 <-> 129
c alp_H1_1_6 <-> 129
c H1_P100 <-> 129
c alp_H1_0_0 <-> 130
c alp_H1_0_5 <-> 130
c alp_H1_0_7 <-> 130
c alp_H1_0_8 <-> 130
c alp_H1_0_9 <-> 130
c H1_P0 <-> 130
c tau_2_3_H1_1 <-> 157
c tau_2_3_H1_0 <-> 158
c tau_2_2_H1_1 <-> 159
c tau_2_2_H1_0 <-> 160
c tau_2_1_H1_1 <-> 161
c tau_2_1_H1_0 <-> 162
c tau_2_0_H1_1 <-> 163
c tau_2_0_H1_0 <-> 164
c tau_1_3_H1_1 <-> 201
c tau_1_3_H1_0 <-> 202
c tau_1_3_2 <-> 203
c tau_1_2_H1_1 <-> 204
c tau_1_2_H1_0 <-> 205
c tau_1_2_2 <-> 206
c tau_1_1_H1_1 <-> 207
c tau_1_1_H1_0 <-> 208
c tau_1_1_2 <-> 209
c tau_1_0_H1_1 <-> 210
c tau_1_0_H1_0 <-> 211
c tau_1_0_2 <-> 212
c tau_0_3_H1_1 <-> 273
c tau_0_3_H1_0 <-> 275
c tau_0_3_2 <-> 276
c tau_0_3_1 <-> 277
c tau_0_2_H1_1 <-> 278
c tau_0_2_H1_0 <-> 279
c tau_0_2_2 <-> 280
c tau_0_2_1 <-> 281
c tau_0_1_H1_1 <-> 282
c tau_0_1_H1_0 <-> 283
c tau_0_1_2 <-> 284
c tau_0_1_1 <-> 285
c tau_0_0_H1_1 <-> 286
c tau_0_0_H1_0 <-> 287
c tau_0_0_2 <-> 288
c tau_0_0_1 <-> 289
c lam_2_F10 <-> 293
c lam_2_F1 <-> 294
c lam_1_F10 <-> 298
c lam_1_F1 <-> 299
c lam_0_F10 <-> 303
c lam_0_F1 <-> 304
p wcnf 304 803 11  
11 1 0
11 2 -3 0
11 2 -4 0
11 -2 4 3 0
11 -3 5 0
11 -3 293 0
11 3 -293 -5 0
11 -4 5 0
11 -4 294 0
11 4 -294 -5 0
11 -5 -163 0
11 -5 6 0
11 5 -6 163 0
11 6 164 0
11 6 -130 0
11 -6 130 -164 0
11 7 -8 0
11 7 -9 0
11 -7 9 8 0
11 -8 10 0
11 -8 298 0
11 8 -298 -10 0
11 -9 10 0
11 -9 299 0
11 9 -299 -10 0
11 -10 -210 0
11 -10 11 0
11 10 -11 210 0
11 -11 12 0
11 -11 13 0
11 11 -13 -12 0
11 12 211 0
11 12 -130 0
11 -12 130 -211 0
11 13 -2 0
11 13 212 0
11 -13 -212 2 0
11 14 -15 0
11 14 -16 0
11 -14 16 15 0
1 14 0
11 -15 17 0
11 -15 303 0
11 15 -303 -17 0
11 -16 17 0
11 -16 304 0
11 16 -304 -17 0
11 -17 -286 0
11 -17 18 0
11 17 -18 286 0
11 -18 19 0
11 -18 20 0
11 18 -20 -19 0
11 19 287 0
11 19 -130 0
11 -19 130 -287 0
11 -20 21 0
11 -20 22 0
11 20 -22 -21 0
11 21 -2 0
11 21 288 0
11 -21 -288 2 0
11 22 -7 0
11 22 289 0
11 -22 -289 7 0
11 23 -3 0
11 23 -24 0
11 -23 24 3 0
11 -24 25 0
11 -24 294 0
11 24 -294 -25 0
11 -25 -157 0
11 -25 26 0
11 25 -26 157 0
11 26 158 0
11 26 -130 0
11 -26 130 -158 0
11 27 -28 0
11 27 -32 0
11 -27 32 28 0
11 -28 29 0
11 -28 298 0
11 28 -298 -29 0
11 -29 -210 0
11 -29 30 0
11 29 -30 210 0
11 -30 12 0
11 -30 31 0
11 30 -31 -12 0
11 31 212 0
11 31 -23 0
11 -31 23 -212 0
11 -32 33 0
11 -32 299 0
11 32 -299 -33 0
11 -33 -201 0
11 -33 34 0
11 33 -34 201 0
11 -34 35 0
11 -34 36 0
11 34 -36 -35 0
11 35 202 0
11 35 -130 0
11 -35 130 -202 0
11 36 -23 0
11 36 203 0
11 -36 -203 23 0
11 37 -38 0
11 37 -44 0
11 -37 44 38 0
1 37 0
11 -38 39 0
11 -38 303 0
11 38 -303 -39 0
11 -39 -286 0
11 -39 40 0
11 39 -40 286 0
11 -40 19 0
11 -40 41 0
11 40 -41 -19 0
11 -41 42 0
11 -41 43 0
11 41 -43 -42 0
11 42 288 0
11 42 -23 0
11 -42 23 -288 0
11 43 289 0
11 43 -27 0
11 -43 27 -289 0
11 -44 45 0
11 -44 304 0
11 44 -304 -45 0
11 -45 -273 0
11 -45 46 0
11 45 -46 273 0
11 -46 47 0
11 -46 48 0
11 46 -48 -47 0
11 47 275 0
11 47 -130 0
11 -47 130 -275 0
11 -48 49 0
11 -48 50 0
11 48 -50 -49 0
11 49 -23 0
11 49 276 0
11 -49 -276 23 0
11 50 -27 0
11 50 277 0
11 -50 -277 27 0
11 51 -52 0
11 51 -55 0
11 -51 55 52 0
11 -52 53 0
11 -52 293 0
11 52 -293 -53 0
11 -53 54 0
11 -53 -160 0
11 53 160 -54 0
11 54 159 0
11 54 -129 0
11 -54 129 -159 0
11 -55 56 0
11 -55 294 0
11 55 -294 -56 0
11 -56 57 0
11 -56 -162 0
11 56 162 -57 0
11 57 161 0
11 57 -129 0
11 -57 129 -161 0
11 58 -59 0
11 58 -64 0
11 -58 64 59 0
11 -59 60 0
11 -59 298 0
11 59 -298 -60 0
11 -60 61 0
11 -60 62 0
11 60 -62 -61 0
11 61 204 0
11 61 -129 0
11 -61 129 -204 0
11 -62 -205 0
11 -62 63 0
11 62 -63 205 0
11 63 -51 0
11 63 206 0
11 -63 -206 51 0
11 -64 65 0
11 -64 299 0
11 64 -299 -65 0
11 -65 66 0
11 -65 67 0
11 65 -67 -66 0
11 66 207 0
11 66 -129 0
11 -66 129 -207 0
11 -67 -208 0
11 -67 68 0
11 67 -68 208 0
11 68 -51 0
11 68 209 0
11 -68 -209 51 0
11 69 -70 0
11 69 -77 0
11 -69 77 70 0
1 69 0
11 -70 71 0
11 -70 303 0
11 70 -303 -71 0
11 -71 72 0
11 -71 73 0
11 71 -73 -72 0
11 72 278 0
11 72 -129 0
11 -72 129 -278 0
11 -73 -279 0
11 -73 74 0
11 73 -74 279 0
11 -74 75 0
11 -74 76 0
11 74 -76 -75 0
11 75 -51 0
11 75 280 0
11 -75 -280 51 0
11 76 -58 0
11 76 281 0
11 -76 -281 58 0
11 -77 78 0
11 -77 304 0
11 77 -304 -78 0
11 -78 79 0
11 -78 80 0
11 78 -80 -79 0
11 79 282 0
11 79 -129 0
11 -79 129 -282 0
11 -80 -283 0
11 -80 81 0
11 80 -81 283 0
11 -81 82 0
11 -81 83 0
11 81 -83 -82 0
11 82 -51 0
11 82 284 0
11 -82 -284 51 0
11 83 -58 0
11 83 285 0
11 -83 -285 58 0
11 84 -55 0
11 84 -85 0
11 -84 85 55 0
11 -85 56 0
11 -85 293 0
11 85 -293 -56 0
11 86 -87 0
11 86 -88 0
11 -86 88 87 0
11 -87 89 0
11 -87 298 0
11 87 -298 -89 0
11 -88 89 0
11 -88 299 0
11 88 -299 -89 0
11 -89 66 0
11 -89 90 0
11 89 -90 -66 0
11 -90 -208 0
11 -90 91 0
11 90 -91 208 0
11 91 209 0
11 91 -84 0
11 -91 84 -209 0
11 92 -93 0
11 92 -94 0
11 -92 94 93 0
1 92 0
11 -93 95 0
11 -93 303 0
11 93 -303 -95 0
11 -94 95 0
11 -94 304 0
11 94 -304 -95 0
11 -95 79 0
11 -95 96 0
11 95 -96 -79 0
11 -96 -283 0
11 -96 97 0
11 96 -97 283 0
11 -97 98 0
11 -97 99 0
11 97 -99 -98 0
11 98 284 0
11 98 -84 0
11 -98 84 -284 0
11 99 285 0
11 99 -86 0
11 -99 86 -285 0
11 100 -52 0
11 100 -101 0
11 -100 101 52 0
11 -101 102 0
11 -101 294 0
11 101 -294 -102 0
11 -102 -158 0
11 -102 103 0
11 102 -103 158 0
11 103 157 0
11 103 -129 0
11 -103 129 -157 0
11 104 -105 0
11 104 -109 0
11 -104 109 105 0
11 -105 106 0
11 -105 298 0
11 105 -298 -106 0
11 -106 61 0
11 -106 107 0
11 106 -107 -61 0
11 -107 -205 0
11 -107 108 0
11 107 -108 205 0
11 108 206 0
11 108 -100 0
11 -108 100 -206 0
11 -109 110 0
11 -109 299 0
11 109 -299 -110 0
11 -110 111 0
11 -110 112 0
11 110 -112 -111 0
11 111 201 0
11 111 -129 0
11 -111 129 -201 0
11 -112 -202 0
11 -112 113 0
11 112 -113 202 0
11 113 203 0
11 113 -100 0
11 -113 100 -203 0
11 114 -115 0
11 114 -121 0
11 -114 121 115 0
1 114 0
11 -115 116 0
11 -115 303 0
11 115 -303 -116 0
11 -116 72 0
11 -116 117 0
11 116 -117 -72 0
11 -117 -279 0
11 -117 118 0
11 117 -118 279 0
11 -118 119 0
11 -118 120 0
11 118 -120 -119 0
11 119 280 0
11 119 -100 0
11 -119 100 -280 0
11 120 281 0
11 120 -104 0
11 -120 104 -281 0
11 -121 122 0
11 -121 304 0
11 121 -304 -122 0
11 -122 123 0
11 -122 124 0
11 122 -124 -123 0
11 123 273 0
11 123 -129 0
11 -123 129 -273 0
11 -124 -275 0
11 -124 125 0
11 124 -125 275 0
11 -125 126 0
11 -125 127 0
11 125 -127 -126 0
11 126 276 0
11 126 -100 0
11 -126 100 -276 0
11 127 277 0
11 127 -104 0
11 -127 104 -277 0
11 -128 0
11 131 293 0
11 131 -132 0
11 -131 132 -293 0
11 131 0
11 -132 -157 0
11 -132 -158 0
11 132 158 157 0
11 133 298 0
11 133 -134 0
11 -133 134 -298 0
11 133 0
11 -134 -201 0
11 -134 135 0
11 134 -135 201 0
11 -135 -202 0
11 -135 -203 0
11 135 203 202 0
11 136 303 0
11 136 -137 0
11 -136 137 -303 0
11 136 0
11 -137 -273 0
11 -137 138 0
11 137 -138 273 0
11 -138 -275 0
11 -138 139 0
11 138 -139 275 0
11 -139 -276 0
11 -139 -277 0
11 139 277 276 0
11 140 293 0
11 140 -141 0
11 -140 141 -293 0
11 140 0
11 -141 142 0
11 -141 145 0
11 141 -145 -142 0
11 142 -143 0
11 142 -144 0
11 -142 144 143 0
11 -143 -160 0
11 -143 159 0
11 143 -159 160 0
11 -144 -159 0
11 -144 160 0
11 144 -160 159 0
11 -145 146 0
11 -145 149 0
11 145 -149 -146 0
11 146 -147 0
11 146 -148 0
11 -146 148 147 0
11 -147 -162 0
11 -147 161 0
11 147 -161 162 0
11 -148 -161 0
11 -148 162 0
11 148 -162 161 0
11 149 -150 0
11 149 -151 0
11 -149 151 150 0
11 -150 -164 0
11 -150 163 0
11 150 -163 164 0
11 -151 -163 0
11 -151 164 0
11 151 -164 163 0
11 152 294 0
11 152 -153 0
11 -152 153 -294 0
11 152 0
11 -153 141 0
11 -153 154 0
11 153 -154 -141 0
11 154 -155 0
11 154 -156 0
11 -154 156 155 0
11 -155 -158 0
11 -155 157 0
11 155 -157 158 0
11 -156 -157 0
11 -156 158 0
11 156 -158 157 0
11 165 298 0
11 165 -166 0
11 -165 166 -298 0
11 165 0
11 -166 167 0
11 -166 175 0
11 166 -175 -167 0
11 167 -168 0
11 167 -173 0
11 -167 173 168 0
11 168 -169 0
11 168 -171 0
11 -168 171 169 0
11 -169 170 0
11 -169 204 0
11 169 -204 -170 0
11 -170 -205 0
11 -170 -206 0
11 170 206 205 0
11 -171 172 0
11 -171 205 0
11 171 -205 -172 0
11 -172 -204 0
11 -172 -206 0
11 172 206 204 0
11 -173 174 0
11 -173 206 0
11 173 -206 -174 0
11 -174 -204 0
11 -174 -205 0
11 174 205 204 0
11 -175 176 0
11 -175 184 0
11 175 -184 -176 0
11 176 -177 0
11 176 -182 0
11 -176 182 177 0
11 177 -178 0
11 177 -180 0
11 -177 180 178 0
11 -178 179 0
11 -178 207 0
11 178 -207 -179 0
11 -179 -208 0
11 -179 -209 0
11 179 209 208 0
11 -180 181 0
11 -180 208 0
11 180 -208 -181 0
11 -181 -207 0
11 -181 -209 0
11 181 209 207 0
11 -182 183 0
11 -182 209 0
11 182 -209 -183 0
11 -183 -207 0
11 -183 -208 0
11 183 208 207 0
11 184 -185 0
11 184 -190 0
11 -184 190 185 0
11 185 -186 0
11 185 -188 0
11 -185 188 186 0
11 -186 187 0
11 -186 210 0
11 186 -210 -187 0
11 -187 -211 0
11 -187 -212 0
11 187 212 211 0
11 -188 189 0
11 -188 211 0
11 188 -211 -189 0
11 -189 -210 0
11 -189 -212 0
11 189 212 210 0
11 -190 191 0
11 -190 212 0
11 190 -212 -191 0
11 -191 -210 0
11 -191 -211 0
11 191 211 210 0
11 192 299 0
11 192 -193 0
11 -192 193 -299 0
11 192 0
11 -193 166 0
11 -193 194 0
11 193 -194 -166 0
11 194 -195 0
11 194 -199 0
11 -194 199 195 0
11 195 -196 0
11 195 -197 0
11 -195 197 196 0
11 -196 135 0
11 -196 201 0
11 196 -201 -135 0
11 -197 198 0
11 -197 202 0
11 197 -202 -198 0
11 -198 -201 0
11 -198 -203 0
11 198 203 201 0
11 -199 200 0
11 -199 203 0
11 199 -203 -200 0
11 -200 -201 0
11 -200 -202 0
11 200 202 201 0
11 213 303 0
11 213 -214 0
11 -213 214 -303 0
11 213 0
11 -214 215 0
11 -214 229 0
11 214 -229 -215 0
11 215 -216 0
11 215 -222 0
11 -215 222 216 0
11 216 -217 0
11 216 -219 0
11 -216 219 217 0
11 -217 218 0
11 -217 278 0
11 217 -278 -218 0
11 -218 -280 0
11 -218 225 0
11 218 -225 280 0
11 -219 220 0
11 -219 279 0
11 219 -279 -220 0
11 -220 -280 0
11 -220 221 0
11 220 -221 280 0
11 -221 -278 0
11 -221 -281 0
11 221 281 278 0
11 222 -223 0
11 222 -226 0
11 -222 226 223 0
11 -223 224 0
11 -223 280 0
11 223 -280 -224 0
11 -224 -278 0
11 -224 225 0
11 224 -225 278 0
11 -225 -279 0
11 -225 -281 0
11 225 281 279 0
11 -226 227 0
11 -226 281 0
11 226 -281 -227 0
11 -227 -278 0
11 -227 228 0
11 227 -228 278 0
11 -228 -279 0
11 -228 -280 0
11 228 280 279 0
11 -229 230 0
11 -229 244 0
11 229 -244 -230 0
11 230 -231 0
11 230 -237 0
11 -230 237 231 0
11 231 -232 0
11 231 -234 0
11 -231 234 232 0
11 -232 233 0
11 -232 282 0
11 232 -282 -233 0
11 -233 -284 0
11 -233 240 0
11 233 -240 284 0
11 -234 235 0
11 -234 283 0
11 234 -283 -235 0
11 -235 -284 0
11 -235 236 0
11 235 -236 284 0
11 -236 -282 0
11 -236 -285 0
11 236 285 282 0
11 237 -238 0
11 237 -241 0
11 -237 241 238 0
11 -238 239 0
11 -238 284 0
11 238 -284 -239 0
11 -239 -282 0
11 -239 240 0
11 239 -240 282 0
11 -240 -283 0
11 -240 -285 0
11 240 285 283 0
11 -241 242 0
11 -241 285 0
11 241 -285 -242 0
11 -242 -282 0
11 -242 243 0
11 242 -243 282 0
11 -243 -283 0
11 -243 -284 0
11 243 284 283 0
11 244 -245 0
11 244 -251 0
11 -244 251 245 0
11 245 -246 0
11 245 -248 0
11 -245 248 246 0
11 -246 247 0
11 -246 286 0
11 246 -286 -247 0
11 -247 -288 0
11 -247 254 0
11 247 -254 288 0
11 -248 249 0
11 -248 287 0
11 248 -287 -249 0
11 -249 -288 0
11 -249 250 0
11 249 -250 288 0
11 -250 -286 0
11 -250 -289 0
11 250 289 286 0
11 251 -252 0
11 251 -255 0
11 -251 255 252 0
11 -252 253 0
11 -252 288 0
11 252 -288 -253 0
11 -253 -286 0
11 -253 254 0
11 253 -254 286 0
11 -254 -287 0
11 -254 -289 0
11 254 289 287 0
11 -255 256 0
11 -255 289 0
11 255 -289 -256 0
11 -256 -286 0
11 -256 257 0
11 256 -257 286 0
11 -257 -287 0
11 -257 -288 0
11 257 288 287 0
11 258 304 0
11 258 -259 0
11 -258 259 -304 0
11 258 0
11 -259 214 0
11 -259 260 0
11 259 -260 -214 0
11 260 -261 0
11 260 -267 0
11 -260 267 261 0
11 261 -262 0
11 261 -264 0
11 -261 264 262 0
11 -262 263 0
11 -262 273 0
11 262 -273 -263 0
11 -263 -276 0
11 -263 270 0
11 263 -270 276 0
11 -264 265 0
11 -264 275 0
11 264 -275 -265 0
11 -265 -276 0
11 -265 266 0
11 265 -266 276 0
11 -266 -273 0
11 -266 -277 0
11 266 277 273 0
11 267 -268 0
11 267 -271 0
11 -267 271 268 0
11 -268 269 0
11 -268 276 0
11 268 -276 -269 0
11 -269 -273 0
11 -269 270 0
11 269 -270 273 0
11 -270 -275 0
11 -270 -277 0
11 270 277 275 0
11 -271 272 0
11 -271 277 0
11 271 -277 -272 0
11 -272 -273 0
11 -272 274 0
11 272 -274 273 0
11 -274 -275 0
11 -274 -276 0
11 274 276 275 0
11 290 -291 0
11 290 -292 0
11 -290 292 291 0
11 290 0
11 -291 -294 0
11 -291 293 0
11 291 -293 294 0
11 -292 -293 0
11 -292 294 0
11 292 -294 293 0
11 295 -296 0
11 295 -297 0
11 -295 297 296 0
11 295 0
11 -296 -299 0
11 -296 298 0
11 296 -298 299 0
11 -297 -298 0
11 -297 299 0
11 297 -299 298 0
11 300 -301 0
11 300 -302 0
11 -300 302 301 0
11 300 0
11 -301 -304 0
11 -301 303 0
11 301 -303 304 0
11 -302 -303 0
11 -302 304 0
11 302 -304 303 0
